\ LP format - for model browsing. Use MPS format to capture full model detail.
Minimize
  0 C0(0) + 0 C1(0) + 0 C2(0) + 0 C3(0) + 0 C4(0) + 0 C5(0) + 0 C6(0)
   + 0 C7(0) + 0 C8(0) + 0 C9(0) + 0 C10(0) + 0 C11(0) + 0 C12(0)
   + 0 C13(0) + 0 C14(0) + 0 C15(0) + 0 C16(0) + 0 C17(0) + 0 C18(0)
   + 0 C19(0) + 0 C20(0) + 0 C21(0) + 0 C22(0) + 0 C23(0) + 0 C24(0)
   + 0 C25(0) + 0 C26(0) + 0 C27(0) + 0 C28(0) + 0 C29(0) + 0 C30(0)
   + 0 C31(0) + 0 C32(0) + 0 C33(0) + 0 C34(0) + 0 C35(0) + 0 C36(0)
   + 0 C37(0) + 0 C38(0) + 0 C39(0) + 0 C40(0) + 0 C41(0) + 0 C42(0)
   + 0 C43(0) + 0 C44(0) + 0 C45(0) + 0 C46(0) + 0 C47(0) + 0 C48(0)
   + 0 C49(0) + 0 C50(0) + 0 C51(0) + 0 C52(0) + 0 C53(0) + 0 C54(0)
   + 0 C55(0) + 0 C56(0) + 0 C57(0) + 0 C58(0) + 0 C59(0) + 0 C60(0)
   + 0 C61(0) + 0 C62(0) + 0 C63(0) + 0 C64(0) + 0 C65(0) + 0 C66(0)
   + 0 C67(0) + 0 C68(0) + 0 C69(0) + 0 C70(0) + 0 C71(0) + 0 C72(0)
   + 0 C73(0) + 0 C74(0) + 0 C75(0) + 0 C76(0) + 0 C77(0) + 0 C78(0)
   + 0 C79(0) + 0 C80(0) + 0 C81(0) + 0 C82(0) + 0 C83(0) + 0 C84(0)
   + 0 C85(0) + 0 C86(0) + 0 C87(0) + 0 C88(0) + 0 C89(0) + 0 C90(0)
   + 0 C91(0) + 0 C92(0) + 0 C93(0) + 60 B94(7) + 41 B95(7) + 42 B96(9)
   + 75 B97(9) + 41 B99(7) + 42 B100(9) + 19 B101(9) + 53 B102(9)
   + 32 B103(9) + 53 B104(9) + 73 B105(7) + 32 B106(7) + 14 B107(9)
   + 71 B108(9) + 53 B109(7) + 54 B110(9) + 58 B111(9) + 19 B112(9)
   + 58 B113(9) + 19 B115(9) + 35 B116(9) + 14 B117(7) + 14 B118(9)
   + 14 B120(7) + 35 B121(9) + 54 B122(9) + 52 B123(7) + 37 B124(9)
   + 72 B125(9) + 32 B127(9) + 32 B128(9) + 52 B129(9) + 69 B130(7)
   + 19 B131(9) + 37 B132(9) + 43 B133(9) + 19 B134(9) + 19 B135(9)
   + 19 B136(7) + 33 B137(9) + 33 B138(9) + 49 B139(9) + 49 B140(9)
   + 34 B144(9) + 19 B145(9) + 19 B146(7) + 20 B147(9) + 20 B148(9)
   + 39 B149(9) + 39 B150(9) + 61 B151(9) + 61 B152(7) + 60 B153(7)
   + 60 B154(9) + 82 B155(9) + 81 B156(7) + 99 B157(9) + 56 B158(9)
   + 43 B159(9) + 73 B160(9) + 43 B161(9) + 43 B162(9) + 81 B163(9)
   + 74 B164(7) + 74 B165(9) + 60 B166(7) + 74 B167(7) + 95 B168(9)
   + 114 B169(9) + 112 B170(7) + 61 B171(9) + 95 B172(9) + 60 B173(9)
   + 92 B174(9) + 92 B175(9) + 112 B176(9) + 129 B177(7) + 61 B178(9)
   + 61 B179(9) + 79 B180(9) + 79 B181(9) + 79 B182(9) + 79 B183(7)
   + 79 B184(9) + 93 B185(9) + 109 B186(9) + 109 B187(9)
Subject To
 c0: B94(7) + B141(7) = 1
 c1: B95(7) + B142(7) = 1
 c2: B96(9) + B143(9) = 1
 c3: B97(9) + B144(9) = 1
 c4: B98(9) + B145(9) = 1
 c5: B99(7) + B146(7) = 1
 c6: B100(9) + B147(9) = 1
 c7: B101(9) + B148(9) = 1
 c8: B102(9) + B149(9) = 1
 c9: B103(9) + B150(9) = 1
 c10: B104(9) + B151(9) = 1
 c11: B105(7) + B152(7) = 1
 c12: B106(7) + B153(7) = 1
 c13: B107(9) + B154(9) = 1
 c14: B108(9) + B155(9) = 1
 c15: B109(7) + B156(7) = 1
 c16: B110(9) + B157(9) = 1
 c17: B111(9) + B158(9) = 1
 c18: B112(9) + B159(9) = 1
 c19: B113(9) + B160(9) = 1
 c20: B114(9) + B161(9) = 1
 c21: B115(9) + B162(9) = 1
 c22: B116(9) + B163(9) = 1
 c23: B117(7) + B164(7) = 1
 c24: B118(9) + B165(9) = 1
 c25: B119(7) + B166(7) = 1
 c26: B120(7) + B167(7) = 1
 c27: B121(9) + B168(9) = 1
 c28: B122(9) + B169(9) = 1
 c29: B123(7) + B170(7) = 1
 c30: B124(9) + B171(9) = 1
 c31: B125(9) + B172(9) = 1
 c32: B126(9) + B173(9) = 1
 c33: B127(9) + B174(9) = 1
 c34: B128(9) + B175(9) = 1
 c35: B129(9) + B176(9) = 1
 c36: B130(7) + B177(7) = 1
 c37: B131(9) + B178(9) = 1
 c38: B132(9) + B179(9) = 1
 c39: B133(9) + B180(9) = 1
 c40: B134(9) + B181(9) = 1
 c41: B135(9) + B182(9) = 1
 c42: B136(7) + B183(7) = 1
 c43: B137(9) + B184(9) = 1
 c44: B138(9) + B185(9) = 1
 c45: B139(9) + B186(9) = 1
 c46: B140(9) + B187(9) = 1
 c47: 279 B96(9) + 150 B97(9) + 205 B98(9) + 82 B100(9) + 187 B101(9)
   + 265 B102(9) + 325 B103(9) + 86 B104(9) + 153 B107(9) + 285 B108(9)
   + 377 B110(9) + 197 B111(9) + 241 B112(9) + 152 B113(9) + 306 B114(9)
   + 216 B115(9) + 88 B116(9) + 379 B118(9) + 399 B121(9) + 390 B122(9)
   + 375 B124(9) + 238 B125(9) + 202 B126(9) + 11 B127(9) + 364 B128(9)
   + 147 B129(9) + 26 B131(9) + 32 B132(9) + 394 B133(9) + 313 B134(9)
   + 139 B135(9) + 59 B137(9) + 262 B138(9) + 398 B139(9) + 384 B140(9)
   <= 4458.3
 c48: 279 B143(9) + 150 B144(9) + 205 B145(9) + 82 B147(9) + 187 B148(9)
   + 265 B149(9) + 325 B150(9) + 86 B151(9) + 153 B154(9) + 285 B155(9)
   + 377 B157(9) + 197 B158(9) + 241 B159(9) + 152 B160(9) + 306 B161(9)
   + 216 B162(9) + 88 B163(9) + 379 B165(9) + 399 B168(9) + 390 B169(9)
   + 375 B171(9) + 238 B172(9) + 202 B173(9) + 11 B174(9) + 364 B175(9)
   + 147 B176(9) + 26 B178(9) + 32 B179(9) + 394 B180(9) + 313 B181(9)
   + 139 B182(9) + 59 B184(9) + 262 B185(9) + 398 B186(9) + 384 B187(9)
   <= 4458.3
 c49: 279 B96(9) + 150 B97(9) + 205 B98(9) + 82 B100(9) + 187 B101(9)
   + 265 B102(9) + 325 B103(9) + 86 B104(9) + 153 B107(9) + 285 B108(9)
   + 377 B110(9) + 197 B111(9) + 241 B112(9) + 152 B113(9) + 306 B114(9)
   + 216 B115(9) + 88 B116(9) + 379 B118(9) + 399 B121(9) + 390 B122(9)
   + 375 B124(9) + 238 B125(9) + 202 B126(9) + 11 B127(9) + 364 B128(9)
   + 147 B129(9) + 26 B131(9) + 32 B132(9) + 394 B133(9) + 313 B134(9)
   + 139 B135(9) + 59 B137(9) + 262 B138(9) + 398 B139(9) + 384 B140(9)
   >= 3647.7
 c50: 279 B143(9) + 150 B144(9) + 205 B145(9) + 82 B147(9) + 187 B148(9)
   + 265 B149(9) + 325 B150(9) + 86 B151(9) + 153 B154(9) + 285 B155(9)
   + 377 B157(9) + 197 B158(9) + 241 B159(9) + 152 B160(9) + 306 B161(9)
   + 216 B162(9) + 88 B163(9) + 379 B165(9) + 399 B168(9) + 390 B169(9)
   + 375 B171(9) + 238 B172(9) + 202 B173(9) + 11 B174(9) + 364 B175(9)
   + 147 B176(9) + 26 B178(9) + 32 B179(9) + 394 B180(9) + 313 B181(9)
   + 139 B182(9) + 59 B184(9) + 262 B185(9) + 398 B186(9) + 384 B187(9)
   >= 3647.7
 c51: B94(7) + B95(7) + B96(9) - 9999 B188(2) <= 0
 c52: B94(7) + B97(9) - 9999 B189(2) <= 0
 c53: B95(7) + B98(9) + B99(7) - 9999 B190(2) <= 0
 c54: B96(9) + B100(9) + B101(9) - 9999 B191(2) <= 0
 c55: B99(7) + B102(9) + B103(9) - 9999 B192(2) <= 0
 c56: B102(9) + B104(9) + B105(7) - 9999 B193(2) <= 0
 c57: B103(9) + B106(7) + B107(9) - 9999 B194(2) <= 0
 c58: B105(7) + B108(9) - 9999 B195(2) <= 0
 c59: B108(9) + B109(7) + B110(9) - 9999 B196(2) <= 0
 c60: B97(9) + B100(9) + B111(9) - 9999 B197(2) <= 0
 c61: B111(9) + B112(9) + B113(9) - 9999 B198(2) <= 0
 c62: B101(9) + B112(9) + B114(9) + B115(9) - 9999 B199(2) <= 0
 c63: B104(9) + B106(7) + B109(7) + B116(9) - 9999 B200(2) <= 0
 c64: B107(9) + B117(7) + B118(9) + B119(7) + B120(7) - 9999 B201(2) <= 0
 c65: B110(9) + B121(9) + B122(9) + B123(7) - 9999 B202(2) <= 0
 c66: B113(9) + B124(9) + B125(9) - 9999 B203(2) <= 0
 c67: B98(9) + B114(9) + B119(7) + B126(9) - 9999 B204(2) <= 0
 c68: B117(7) + B127(9) + B128(9) + B134(9) - 9999 B205(2) <= 0
 c69: B116(9) + B118(9) + B121(9) - 9999 B206(2) <= 0
 c70: B122(9) + B129(9) + B130(7) - 9999 B207(2) <= 0
 c71: B115(9) + B124(9) + B131(9) + B132(9) - 9999 B208(2) <= 0
 c72: B125(9) + B133(9) - 9999 B209(2) <= 0
 c73: B120(7) + B126(9) + B131(9) + B134(9) + B135(9) + B136(7)
   - 9999 B210(2) <= 0
 c74: B132(9) + B133(9) + B136(7) + B137(9) - 9999 B211(2) <= 0
 c75: B135(9) + B137(9) + B138(9) - 9999 B212(2) <= 0
 c76: B128(9) + B138(9) + B139(9) + B140(9) - 9999 B213(2) <= 0
 c77: B123(7) + B127(9) + B129(9) + B139(9) - 9999 B214(2) <= 0
 c78: B130(7) + B140(9) - 9999 B215(2) <= 0
 c79: B141(7) + B142(7) + B143(9) - 9999 B216(2) <= 0
 c80: B141(7) + B144(9) - 9999 B217(2) <= 0
 c81: B142(7) + B145(9) + B146(7) - 9999 B218(2) <= 0
 c82: B143(9) + B147(9) + B148(9) - 9999 B219(2) <= 0
 c83: B146(7) + B149(9) + B150(9) - 9999 B220(2) <= 0
 c84: B149(9) + B151(9) + B152(7) - 9999 B221(2) <= 0
 c85: B150(9) + B153(7) + B154(9) - 9999 B222(2) <= 0
 c86: B152(7) + B155(9) - 9999 B223(2) <= 0
 c87: B155(9) + B156(7) + B157(9) - 9999 B224(2) <= 0
 c88: B144(9) + B147(9) + B158(9) - 9999 B225(2) <= 0
 c89: B158(9) + B159(9) + B160(9) - 9999 B226(2) <= 0
 c90: B148(9) + B159(9) + B161(9) + B162(9) - 9999 B227(2) <= 0
 c91: B151(9) + B153(7) + B156(7) + B163(9) - 9999 B228(2) <= 0
 c92: B154(9) + B164(7) + B165(9) + B166(7) + B167(7) - 9999 B229(2) <= 0
 c93: B157(9) + B168(9) + B169(9) + B170(7) - 9999 B230(2) <= 0
 c94: B160(9) + B171(9) + B172(9) - 9999 B231(2) <= 0
 c95: B145(9) + B161(9) + B166(7) + B173(9) - 9999 B232(2) <= 0
 c96: B164(7) + B174(9) + B175(9) + B181(9) - 9999 B233(2) <= 0
 c97: B163(9) + B165(9) + B168(9) - 9999 B234(2) <= 0
 c98: B169(9) + B176(9) + B177(7) - 9999 B235(2) <= 0
 c99: B162(9) + B171(9) + B178(9) + B179(9) - 9999 B236(2) <= 0
 c100: B172(9) + B180(9) - 9999 B237(2) <= 0
 c101: B167(7) + B173(9) + B178(9) + B181(9) + B182(9) + B183(7)
   - 9999 B238(2) <= 0
 c102: B179(9) + B180(9) + B183(7) + B184(9) - 9999 B239(2) <= 0
 c103: B182(9) + B184(9) + B185(9) - 9999 B240(2) <= 0
 c104: B175(9) + B185(9) + B186(9) + B187(9) - 9999 B241(2) <= 0
 c105: B170(7) + B174(9) + B176(9) + B186(9) - 9999 B242(2) <= 0
 c106: B177(7) + B187(9) - 9999 B243(2) <= 0
 c107: B94(7) + B95(7) + B96(9) - B188(2) >= 0
 c108: B94(7) + B97(9) - B189(2) >= 0
 c109: B95(7) + B98(9) + B99(7) - B190(2) >= 0
 c110: B96(9) + B100(9) + B101(9) - B191(2) >= 0
 c111: B99(7) + B102(9) + B103(9) - B192(2) >= 0
 c112: B102(9) + B104(9) + B105(7) - B193(2) >= 0
 c113: B103(9) + B106(7) + B107(9) - B194(2) >= 0
 c114: B105(7) + B108(9) - B195(2) >= 0
 c115: B108(9) + B109(7) + B110(9) - B196(2) >= 0
 c116: B97(9) + B100(9) + B111(9) - B197(2) >= 0
 c117: B111(9) + B112(9) + B113(9) - B198(2) >= 0
 c118: B101(9) + B112(9) + B114(9) + B115(9) - B199(2) >= 0
 c119: B104(9) + B106(7) + B109(7) + B116(9) - B200(2) >= 0
 c120: B107(9) + B117(7) + B118(9) + B119(7) + B120(7) - B201(2) >= 0
 c121: B110(9) + B121(9) + B122(9) + B123(7) - B202(2) >= 0
 c122: B113(9) + B124(9) + B125(9) - B203(2) >= 0
 c123: B98(9) + B114(9) + B119(7) + B126(9) - B204(2) >= 0
 c124: B117(7) + B127(9) + B128(9) + B134(9) - B205(2) >= 0
 c125: B116(9) + B118(9) + B121(9) - B206(2) >= 0
 c126: B122(9) + B129(9) + B130(7) - B207(2) >= 0
 c127: B115(9) + B124(9) + B131(9) + B132(9) - B208(2) >= 0
 c128: B125(9) + B133(9) - B209(2) >= 0
 c129: B120(7) + B126(9) + B131(9) + B134(9) + B135(9) + B136(7) - B210(2)
   >= 0
 c130: B132(9) + B133(9) + B136(7) + B137(9) - B211(2) >= 0
 c131: B135(9) + B137(9) + B138(9) - B212(2) >= 0
 c132: B128(9) + B138(9) + B139(9) + B140(9) - B213(2) >= 0
 c133: B123(7) + B127(9) + B129(9) + B139(9) - B214(2) >= 0
 c134: B130(7) + B140(9) - B215(2) >= 0
 c135: B141(7) + B142(7) + B143(9) - B216(2) >= 0
 c136: B141(7) + B144(9) - B217(2) >= 0
 c137: B142(7) + B145(9) + B146(7) - B218(2) >= 0
 c138: B143(9) + B147(9) + B148(9) - B219(2) >= 0
 c139: B146(7) + B149(9) + B150(9) - B220(2) >= 0
 c140: B149(9) + B151(9) + B152(7) - B221(2) >= 0
 c141: B150(9) + B153(7) + B154(9) - B222(2) >= 0
 c142: B152(7) + B155(9) - B223(2) >= 0
 c143: B155(9) + B156(7) + B157(9) - B224(2) >= 0
 c144: B144(9) + B147(9) + B158(9) - B225(2) >= 0
 c145: B158(9) + B159(9) + B160(9) - B226(2) >= 0
 c146: B148(9) + B159(9) + B161(9) + B162(9) - B227(2) >= 0
 c147: B151(9) + B153(7) + B156(7) + B163(9) - B228(2) >= 0
 c148: B154(9) + B164(7) + B165(9) + B166(7) + B167(7) - B229(2) >= 0
 c149: B157(9) + B168(9) + B169(9) + B170(7) - B230(2) >= 0
 c150: B160(9) + B171(9) + B172(9) - B231(2) >= 0
 c151: B145(9) + B161(9) + B166(7) + B173(9) - B232(2) >= 0
 c152: B164(7) + B174(9) + B175(9) + B181(9) - B233(2) >= 0
 c153: B163(9) + B165(9) + B168(9) - B234(2) >= 0
 c154: B169(9) + B176(9) + B177(7) - B235(2) >= 0
 c155: B162(9) + B171(9) + B178(9) + B179(9) - B236(2) >= 0
 c156: B172(9) + B180(9) - B237(2) >= 0
 c157: B167(7) + B173(9) + B178(9) + B181(9) + B182(9) + B183(7) - B238(2)
   >= 0
 c158: B179(9) + B180(9) + B183(7) + B184(9) - B239(2) >= 0
 c159: B182(9) + B184(9) + B185(9) - B240(2) >= 0
 c160: B175(9) + B185(9) + B186(9) + B187(9) - B241(2) >= 0
 c161: B170(7) + B174(9) + B176(9) + B186(9) - B242(2) >= 0
 c162: B177(7) + B187(9) - B243(2) >= 0
 c163: B94(7) + B95(7) + B96(9) - 2 C244(1) - B300(3) = 0
 c164: B94(7) + B97(9) - 2 C246(1) - B302(3) = 0
 c165: B95(7) + B98(9) + B99(7) - 2 C248(1) - B304(3) = 0
 c166: B96(9) + B100(9) + B101(9) - 2 C250(1) - B306(3) = 0
 c167: B99(7) + B102(9) + B103(9) - 2 C252(1) - B308(3) = 0
 c168: B102(9) + B104(9) + B105(7) - 2 C254(1) - B310(3) = 0
 c169: B103(9) + B106(7) + B107(9) - 2 C256(1) - B312(3) = 0
 c170: B105(7) + B108(9) - 2 C258(1) - B314(3) = 0
 c171: B108(9) + B109(7) + B110(9) - 2 C260(1) - B316(3) = 0
 c172: B97(9) + B100(9) + B111(9) - 2 C262(1) - B318(3) = 0
 c173: B111(9) + B112(9) + B113(9) - 2 C264(1) - B320(3) = 0
 c174: B101(9) + B112(9) + B114(9) + B115(9) - 2 C266(1) - B322(3) = 0
 c175: B104(9) + B106(7) + B109(7) + B116(9) - 2 C268(1) - B324(3) = 0
 c176: B107(9) + B117(7) + B118(9) + B119(7) + B120(7) - 2 C270(1)
   - B326(3) = 0
 c177: B110(9) + B121(9) + B122(9) + B123(7) - 2 C272(1) - B328(3) = 0
 c178: B113(9) + B124(9) + B125(9) - 2 C274(1) - B330(3) = 0
 c179: B98(9) + B114(9) + B119(7) + B126(9) - 2 C276(1) - B332(3) = 0
 c180: B117(7) + B127(9) + B128(9) + B134(9) - 2 C278(1) - B334(3) = 0
 c181: B116(9) + B118(9) + B121(9) - 2 C280(1) - B336(3) = 0
 c182: B122(9) + B129(9) + B130(7) - 2 C282(1) - B338(3) = 0
 c183: B115(9) + B124(9) + B131(9) + B132(9) - 2 C284(1) - B340(3) = 0
 c184: B125(9) + B133(9) - 2 C286(1) - B342(3) = 0
 c185: B120(7) + B126(9) + B131(9) + B134(9) + B135(9) + B136(7)
   - 2 C288(1) - B344(3) = 0
 c186: B132(9) + B133(9) + B136(7) + B137(9) - 2 C290(1) - B346(3) = 0
 c187: B135(9) + B137(9) + B138(9) - 2 C292(1) - B348(3) = 0
 c188: B128(9) + B138(9) + B139(9) + B140(9) - 2 C294(1) - B350(3) = 0
 c189: B123(7) + B127(9) + B129(9) + B139(9) - 2 C296(1) - B352(3) = 0
 c190: B130(7) + B140(9) - 2 C298(1) - B354(3) = 0
 c191: B141(7) + B142(7) + B143(9) - 2 C245(1) - B301(3) = 0
 c192: B141(7) + B144(9) - 2 C247(1) - B303(3) = 0
 c193: B142(7) + B145(9) + B146(7) - 2 C249(1) - B305(3) = 0
 c194: B143(9) + B147(9) + B148(9) - 2 C251(1) - B307(3) = 0
 c195: B146(7) + B149(9) + B150(9) - 2 C253(1) - B309(3) = 0
 c196: B149(9) + B151(9) + B152(7) - 2 C255(1) - B311(3) = 0
 c197: B150(9) + B153(7) + B154(9) - 2 C257(1) - B313(3) = 0
 c198: B152(7) + B155(9) - 2 C259(1) - B315(3) = 0
 c199: B155(9) + B156(7) + B157(9) - 2 C261(1) - B317(3) = 0
 c200: B144(9) + B147(9) + B158(9) - 2 C263(1) - B319(3) = 0
 c201: B158(9) + B159(9) + B160(9) - 2 C265(1) - B321(3) = 0
 c202: B148(9) + B159(9) + B161(9) + B162(9) - 2 C267(1) - B323(3) = 0
 c203: B151(9) + B153(7) + B156(7) + B163(9) - 2 C269(1) - B325(3) = 0
 c204: B154(9) + B164(7) + B165(9) + B166(7) + B167(7) - 2 C271(1)
   - B327(3) = 0
 c205: B157(9) + B168(9) + B169(9) + B170(7) - 2 C273(1) - B329(3) = 0
 c206: B160(9) + B171(9) + B172(9) - 2 C275(1) - B331(3) = 0
 c207: B145(9) + B161(9) + B166(7) + B173(9) - 2 C277(1) - B333(3) = 0
 c208: B164(7) + B174(9) + B175(9) + B181(9) - 2 C279(1) - B335(3) = 0
 c209: B163(9) + B165(9) + B168(9) - 2 C281(1) - B337(3) = 0
 c210: B169(9) + B176(9) + B177(7) - 2 C283(1) - B339(3) = 0
 c211: B162(9) + B171(9) + B178(9) + B179(9) - 2 C285(1) - B341(3) = 0
 c212: B172(9) + B180(9) - 2 C287(1) - B343(3) = 0
 c213: B167(7) + B173(9) + B178(9) + B181(9) + B182(9) + B183(7)
   - 2 C289(1) - B345(3) = 0
 c214: B179(9) + B180(9) + B183(7) + B184(9) - 2 C291(1) - B347(3) = 0
 c215: B182(9) + B184(9) + B185(9) - 2 C293(1) - B349(3) = 0
 c216: B175(9) + B185(9) + B186(9) + B187(9) - 2 C295(1) - B351(3) = 0
 c217: B170(7) + B174(9) + B176(9) + B186(9) - 2 C297(1) - B353(3) = 0
 c218: B177(7) + B187(9) - 2 C299(1) - B355(3) = 0
 c219: B332(3) + B333(3) - B356(3) >= 0
 c220: B314(3) + B315(3) - B361(3) >= 0
 c221: B324(3) + B325(3) - B365(3) >= 0
 c222: B322(3) + B323(3) - B368(3) >= 0
 c223: B302(3) + B303(3) - B369(3) >= 0
 c224: B328(3) + B329(3) - B372(3) >= 0
 c225: B340(3) + B341(3) - B374(3) >= 0
 c226: B344(3) + B345(3) - B375(3) >= 0
 c227: B334(3) + B335(3) - B376(3) >= 0
 c228: B352(3) + B353(3) - B377(3) >= 0
 c229: B342(3) + B343(3) - B379(3) >= 0
 c230: B346(3) + B347(3) - B380(3) >= 0
 c231: B350(3) + B351(3) - B382(3) >= 0
 c232: B354(3) + B355(3) - B383(3) >= 0
 c233: B332(3) + B333(3) - 2 B356(3) <= 0
 c234: B314(3) + B315(3) - 2 B361(3) <= 0
 c235: B324(3) + B325(3) - 2 B365(3) <= 0
 c236: B322(3) + B323(3) - 2 B368(3) <= 0
 c237: B302(3) + B303(3) - 2 B369(3) <= 0
 c238: B328(3) + B329(3) - 2 B372(3) <= 0
 c239: B340(3) + B341(3) - 2 B374(3) <= 0
 c240: B344(3) + B345(3) - 2 B375(3) <= 0
 c241: B334(3) + B335(3) - 2 B376(3) <= 0
 c242: B352(3) + B353(3) - 2 B377(3) <= 0
 c243: B342(3) + B343(3) - 2 B379(3) <= 0
 c244: B346(3) + B347(3) - 2 B380(3) <= 0
 c245: B350(3) + B351(3) - 2 B382(3) <= 0
 c246: B354(3) + B355(3) - 2 B383(3) <= 0
 c247: B300(3) + B301(3) - B357(3) >= 1
 c248: B304(3) + B305(3) - B358(3) >= 1
 c249: B308(3) + B309(3) - B359(3) >= 1
 c250: B310(3) + B311(3) - B360(3) >= 1
 c251: B318(3) + B319(3) - B362(3) >= 1
 c252: B306(3) + B307(3) - B363(3) >= 1
 c253: B312(3) + B313(3) - B364(3) >= 1
 c254: B316(3) + B317(3) - B366(3) >= 1
 c255: B320(3) + B321(3) - B367(3) >= 1
 c256: B326(3) + B327(3) - B370(3) >= 1
 c257: B336(3) + B337(3) - B371(3) >= 1
 c258: B330(3) + B331(3) - B373(3) >= 1
 c259: B338(3) + B339(3) - B378(3) >= 1
 c260: B348(3) + B349(3) - B381(3) >= 1
 c261: B300(3) + B301(3) - 2 B357(3) <= 1
 c262: B304(3) + B305(3) - 2 B358(3) <= 1
 c263: B308(3) + B309(3) - 2 B359(3) <= 1
 c264: B310(3) + B311(3) - 2 B360(3) <= 1
 c265: B318(3) + B319(3) - 2 B362(3) <= 1
 c266: B306(3) + B307(3) - 2 B363(3) <= 1
 c267: B312(3) + B313(3) - 2 B364(3) <= 1
 c268: B316(3) + B317(3) - 2 B366(3) <= 1
 c269: B320(3) + B321(3) - 2 B367(3) <= 1
 c270: B326(3) + B327(3) - 2 B370(3) <= 1
 c271: B336(3) + B337(3) - 2 B371(3) <= 1
 c272: B330(3) + B331(3) - 2 B373(3) <= 1
 c273: B338(3) + B339(3) - 2 B378(3) <= 1
 c274: B348(3) + B349(3) - 2 B381(3) <= 1
 c275: 0.0357142857142857 B356(3) + 0.0357142857142857 B357(3)
   + 0.0357142857142857 B358(3) + 0.0357142857142857 B359(3)
   + 0.0357142857142857 B360(3) + 0.0357142857142857 B361(3)
   + 0.0357142857142857 B362(3) + 0.0357142857142857 B363(3)
   + 0.0357142857142857 B364(3) + 0.0357142857142857 B365(3)
   + 0.0357142857142857 B366(3) + 0.0357142857142857 B367(3)
   + 0.0357142857142857 B368(3) + 0.0357142857142857 B369(3)
   + 0.0357142857142857 B370(3) + 0.0357142857142857 B371(3)
   + 0.0357142857142857 B372(3) + 0.0357142857142857 B373(3)
   + 0.0357142857142857 B374(3) + 0.0357142857142857 B375(3)
   + 0.0357142857142857 B376(3) + 0.0357142857142857 B377(3)
   + 0.0357142857142857 B378(3) + 0.0357142857142857 B379(3)
   + 0.0357142857142857 B380(3) + 0.0357142857142857 B381(3)
   + 0.0357142857142857 B382(3) + 0.0357142857142857 B383(3) <= 0.05
Bounds
Binaries
 B94(7) B95(7) B96(9) B97(9) B98(9) B99(7) B100(9) B101(9) B102(9) B103(9)
 B104(9) B105(7) B106(7) B107(9) B108(9) B109(7) B110(9) B111(9) B112(9)
 B113(9) B114(9) B115(9) B116(9) B117(7) B118(9) B119(7) B120(7) B121(9)
 B122(9) B123(7) B124(9) B125(9) B126(9) B127(9) B128(9) B129(9) B130(7)
 B131(9) B132(9) B133(9) B134(9) B135(9) B136(7) B137(9) B138(9) B139(9)
 B140(9) B141(7) B142(7) B143(9) B144(9) B145(9) B146(7) B147(9) B148(9)
 B149(9) B150(9) B151(9) B152(7) B153(7) B154(9) B155(9) B156(7) B157(9)
 B158(9) B159(9) B160(9) B161(9) B162(9) B163(9) B164(7) B165(9) B166(7)
 B167(7) B168(9) B169(9) B170(7) B171(9) B172(9) B173(9) B174(9) B175(9)
 B176(9) B177(7) B178(9) B179(9) B180(9) B181(9) B182(9) B183(7) B184(9)
 B185(9) B186(9) B187(9) B188(2) B189(2) B190(2) B191(2) B192(2) B193(2)
 B194(2) B195(2) B196(2) B197(2) B198(2) B199(2) B200(2) B201(2) B202(2)
 B203(2) B204(2) B205(2) B206(2) B207(2) B208(2) B209(2) B210(2) B211(2)
 B212(2) B213(2) B214(2) B215(2) B216(2) B217(2) B218(2) B219(2) B220(2)
 B221(2) B222(2) B223(2) B224(2) B225(2) B226(2) B227(2) B228(2) B229(2)
 B230(2) B231(2) B232(2) B233(2) B234(2) B235(2) B236(2) B237(2) B238(2)
 B239(2) B240(2) B241(2) B242(2) B243(2) B300(3) B301(3) B302(3) B303(3)
 B304(3) B305(3) B306(3) B307(3) B308(3) B309(3) B310(3) B311(3) B312(3)
 B313(3) B314(3) B315(3) B316(3) B317(3) B318(3) B319(3) B320(3) B321(3)
 B322(3) B323(3) B324(3) B325(3) B326(3) B327(3) B328(3) B329(3) B330(3)
 B331(3) B332(3) B333(3) B334(3) B335(3) B336(3) B337(3) B338(3) B339(3)
 B340(3) B341(3) B342(3) B343(3) B344(3) B345(3) B346(3) B347(3) B348(3)
 B349(3) B350(3) B351(3) B352(3) B353(3) B354(3) B355(3) B356(3) B357(3)
 B358(3) B359(3) B360(3) B361(3) B362(3) B363(3) B364(3) B365(3) B366(3)
 B367(3) B368(3) B369(3) B370(3) B371(3) B372(3) B373(3) B374(3) B375(3)
 B376(3) B377(3) B378(3) B379(3) B380(3) B381(3) B382(3) B383(3)
End
